D = 5;
T = 12;
N1 = 2;
N2 = 2;
N3 = 2;
MaxDT = 5;
MaxDL = 5;
MinDT = 0;
A = 1;
afines = [|false,false,true,false,true,false,false,false,true,false,false,false
          |false,false,true,true,true,true,true,false,false,false,false,false
          |true,true,false,false,false,false,false,true,true,true,true,true
          |false,true,false,false,true,false,true,false,true,false,true,false
          |true,true,false,true,false,false,false,true,true,false,false,true
          |false,true,false,false,false,false,true,true,false,false,true,true
          |false,true,false,true,false,true,false,false,true,true,false,false
          |false,false,true,false,true,true,false,false,false,false,false,false
          |true,false,true,true,true,false,true,false,false,true,true,true
          |false,false,true,false,false,false,true,false,true,false,false,true
          |false,false,true,true,false,true,false,false,true,false,false,false
          |false,false,true,false,true,true,false,false,true,true,false,false|];
R = {1,4,7,9};
/*
anti = {};
doblar = {};
diasNT = [{},{},{},{},{},{},{},{},{},{},{},{}];
turnosNT = [{},{},{},{},{},{},{},{},{},{},{},{}];
turnosDiaNT = [|{},{},{},{},{},{},{},{},{},{},{},{},
               |{},{},{},{},{},{},{},{},{},{},{},{},
               |{},{},{},{},{},{},{},{},{},{},{},{},
               |{},{},{},{},{},{},{},{},{},{},{},{},
               |{},{},{},{},{},{},{},{},{},{},{},{}|];